WARNING: for repeatability, setting FPU to use double precision
 -----------------------------------------------------------------------------------------------------------------------
|                                 manysat2.0    4 thread(s) on 8 core(s)                                                |
 -----------------------------------------------------------------------------------------------------------------------
 ===============================================[ Problem Statistics ]==================================================
|                                                                                                                       |
|  Number of cores:                 4                                                                                   |
|  Number of variables:         13408                                                                                   |
|  Number of clauses:          308391                                                                                   |
|  Parse time:                   0.31 s                                                                                 |
|                                                                                                                       |
 ==============================================[ Search Statistics ]====================================================
|   Thread  | Conflicts |          ORIGINAL         |          LEARNT          |  exported  / imported      |  Progress |
|    (id)   |           |    Vars  Clauses Literals |    Limit  Clauses Lit/Cl |  (clauses by restart)      |           |
 =======================================================================================================================
|         0 |       100 |   13009   308304  1771789 |   113044       92      5 |           0  -           0 |  2.976 %  |
|         0 |       250 |   13009   308304  1771789 |   124349      242      6 |           0  -           0 |  2.976 %  |
|         0 |       475 |   13009   308304  1771789 |   136784      685      6 |        1176  -         218 |  2.976 %  |
|         2 |       100 |   13009   308304  1771789 |   113076      698      6 |        1183  -         595 |  2.976 %  |
|         3 |       100 |   13009   308304  1771789 |   113076      811      6 |        1183  -         705 |  2.976 %  |
|         1 |       100 |   13009   308304  1771789 |   113076      864      6 |        1183  -         758 |  2.976 %  |
|         2 |       250 |   13009   308304  1771789 |   124384     1223      6 |        1183  -         970 |  2.976 %  |
|         1 |       250 |   13009   308304  1771789 |   124384     1439      6 |        1183  -        1183 |  2.976 %  |
|         3 |       250 |   13009   308304  1771789 |   124384     1535      6 |        1183  -        1279 |  2.976 %  |
|         0 |       812 |   13009   308304  1771789 |   150462     1877      6 |        1176  -        1073 |  2.976 %  |
|         2 |       475 |   13009   308304  1771789 |   136822     2025      6 |        1191  -        1547 |  2.976 %  |
|         1 |       475 |   13009   308304  1771789 |   136822     2346      6 |        1191  -        1865 |  2.976 %  |
|         3 |       475 |   13003   308304  1771789 |   136822     2411      6 |        1183  -        1930 |  3.021 %  |
|         2 |       812 |   13003   308304  1771789 |   150505     3357      6 |        1192  -        2541 |  3.021 %  |
|         0 |      1318 |   13002   308304  1771789 |   165508     3488      6 |        1184  -        2179 |  3.028 %  |
|         1 |       812 |   13003   308304  1771789 |   150505     3817      6 |        1192  -        2999 |  3.021 %  |
|         3 |       812 |   13003   308304  1771789 |   150505     4044      6 |        1184  -        3226 |  3.021 %  |
|         2 |      1318 |   13002   308304  1771789 |   165555     4814      6 |        1192  -        3492 |  3.028 %  |
|         0 |      2077 |   13002   308304  1771789 |   182059     5762      6 |        1184  -        3694 |  3.028 %  |
|         1 |      1318 |   13002   308304  1771789 |   165555     6386      6 |        1192  -        5062 |  3.028 %  |
|         3 |      1318 |   13002   308304  1771789 |   165555     6865      6 |        1184  -        5541 |  3.028 %  |
|         2 |      2077 |   13002   308304  1771789 |   182111     7025      6 |        1192  -        4944 |  3.028 %  |
|         0 |      3216 |   13002   308304  1771789 |   200265     8806      6 |        1184  -        5599 |  3.028 %  |
|         1 |      2077 |   13002   308304  1771789 |   182111    10288      6 |        1192  -        8205 |  3.028 %  |
|         3 |      2077 |   13002   308304  1771789 |   182111    10748      6 |        1184  -        8665 |  3.028 %  |
|         2 |      3216 |   13002   308304  1771789 |   200322    10787      6 |        1192  -        7567 |  3.028 %  |
|         0 |      4924 |   13002   308304  1771789 |   220292    13339      6 |        1184  -        8423 |  3.028 %  |
|         1 |      3216 |   13002   308304  1771789 |   200322    15387      6 |        1192  -       12165 |  3.028 %  |
|         3 |      3216 |   13002   308304  1771789 |   200322    15669      6 |        1184  -       12447 |  3.028 %  |
|         2 |      4924 |   13002   308304  1771789 |   220354    16920      6 |        1192  -       11992 |  3.028 %  |
|         3 |      4924 |   13002   308304  1771789 |   220354    20775      6 |        1184  -       15845 |  3.028 %  |
|         1 |      4924 |   13002   308304  1771789 |   220354    21774      6 |        1192  -       16844 |  3.028 %  |
|         0 |      7486 |   13002   308304  1771789 |   242321    21857      6 |        1184  -       14379 |  3.028 %  |
|         2 |      7486 |   13002   308304  1771789 |   242389    26253      6 |        1192  -       18763 |  3.028 %  |
|         3 |      7486 |   13002   308304  1771789 |   242389    27733      7 |        1184  -       20241 |  3.028 %  |
|         1 |      7486 |   13001   308304  1771789 |   242389    29002      8 |        1192  -       21511 |  3.036 %  |
|         0 |     11330 |   13002   308304  1771789 |   266553    32599      7 |        1214  -       21277 |  3.028 %  |
|         3 |     11330 |   13002   308304  1771789 |   266628    37551      7 |        1214  -       26215 |  3.028 %  |
|         2 |     11330 |   13000   308304  1771789 |   266628    38231      7 |        1207  -       26898 |  3.043 %  |
|         1 |     11330 |   13001   308304  1771789 |   266628    40926      9 |        1207  -       29591 |  3.036 %  |
|         3 |     17096 |   13000   308304  1771789 |   293291    51372      8 |        1214  -       34270 |  3.043 %  |
|         0 |     17096 |   13000   308304  1771789 |   293209    51558      8 |        1214  -       34470 |  3.043 %  |
|         2 |     17096 |   13000   308304  1771789 |   293291    53930      8 |        1207  -       36831 |  3.043 %  |
|         1 |     17096 |   13000   308304  1771789 |   293291    57075      9 |        1207  -       39974 |  3.043 %  |
|         3 |     25745 |   13000   308304  1771789 |   322621    71528      9 |        1216  -       45777 |  3.043 %  |
|         0 |     25745 |   13000   308304  1771789 |   322530    73070      9 |        1216  -       47333 |  3.043 %  |
|         1 |     25745 |   12999   308121  1770984 |   322621    77620     10 |        1207  -       51877 |  3.050 %  |
|         2 |     25745 |   13000   308304  1771789 |   322621    79172      8 |        1209  -       53424 |  3.043 %  |
|         3 |     38719 |   12999   308121  1770984 |   354883    97574     10 |        1216  -       58855 |  3.050 %  |
|         0 |     38719 |   12999   308121  1770984 |   354783   101863     10 |        1216  -       63158 |  3.050 %  |
|         2 |     38719 |   12996   308121  1770984 |   354883   106586     11 |        1219  -       67871 |  3.073 %  |
|         1 |     38719 |   12999   308121  1770984 |   354883   113058     11 |        1220  -       74341 |  3.050 %  |
|         3 |     58180 |   12999   308121  1770984 |   390371   134094     12 |        1234  -       75914 |  3.050 %  |
|         0 |     58180 |   12995   308121  1770984 |   390261   146374     12 |        1224  -       88209 |  3.080 %  |
|         1 |     58180 |   12994   308121  1770984 |   390371   151745     13 |        1220  -       93568 |  3.088 %  |
|         2 |     58180 |   12995   308121  1770984 |   390371   146324     12 |        1224  -       88148 |  3.080 %  |
|         0 |     87372 |   12994   308121  1770984 |   429287   205644     14 |        1224  -      118287 |  3.088 %  |
|         2 |     87372 |   12994   308121  1770984 |   429408   210718     16 |        1224  -      123350 |  3.088 %  |
|         1 |     87372 |   12994   308071  1770809 |   429408   212761     14 |        1220  -      125396 |  3.088 %  |
|         3 |     87372 |   12994   308121  1770984 |   429408   200466     12 |        1234  -      113094 |  3.088 %  |
|         1 |    131161 |   12992   308047  1770723 |   472349   293081     17 |        1245  -      161930 |  3.103 %  |
|         0 |    131161 |   12992   308071  1770809 |   472216   281321     17 |        1245  -      150180 |  3.103 %  |
|         2 |    131161 |   12991   308071  1770809 |   472349   288775     18 |        1245  -      157624 |  3.110 %  |
|         3 |    131161 |   12993   308071  1770809 |   472349   292957     13 |        1249  -      161801 |  3.095 %  |
|         1 |    196845 |   12992   308047  1770723 |   519584   406977     20 |        1249  -      210142 |  3.103 %  |
|         0 |    196845 |   12992   308071  1770809 |   519437   397431     20 |        1249  -      200606 |  3.103 %  |
|         2 |    196845 |   12989   308071  1770809 |   519584   401310     19 |        1245  -      204477 |  3.125 %  |
|         3 |    196845 |   12989   308071  1770809 |   519584   399612     18 |        1249  -      202772 |  3.125 %  |
|         1 |    295371 |   12989   308047  1770723 |   571542    67147     37 |        1249  -      272360 |  3.125 %  |
|         0 |    295371 |   12989   308010  1770585 |   571381    83762     21 |        1250  -      279754 |  3.125 %  |
|         2 |    295371 |   12987   308010  1770585 |   571542   109305     18 |        1245  -      290393 |  3.140 %  |
|         3 |    295371 |   12989   308010  1770585 |   571542   110213     14 |        1250  -      284863 |  3.125 %  |
|         2 |    443160 |   12983   307963  1770425 |   628697   388681     20 |        1245  -      421985 |  3.170 %  |
|         0 |    443160 |   12987   308010  1770585 |   628519   378781     19 |        1252  -      426984 |  3.140 %  |
|         3 |    443160 |   12987   308010  1770585 |   628697   375072     20 |        1252  -      401933 |  3.140 %  |
|         1 |    443160 |   12989   308010  1770585 |   628697   387698     19 |        1252  -      445124 |  3.125 %  |
|         3 |    664843 |   12983   307963  1770425 |   691566   104566     34 |        1252  -      515288 |  3.170 %  |
|         0 |    664843 |   12983   307963  1770425 |   691371   118584     24 |        1252  -      553988 |  3.170 %  |
|         2 |    664843 |   12983   307963  1770425 |   691566   195957     33 |        1245  -      593428 |  3.170 %  |
|         1 |    664843 |   12983   307963  1770425 |   691566   329984     43 |        1252  -      738357 |  3.170 %  |
|         3 |    997368 |   12983   307963  1770425 |   760723   651668     29 |        1252  -      729864 |  3.170 %  |
|         0 |    997368 |   12983   307963  1770425 |   760508   656026     30 |        1252  -      758905 |  3.170 %  |
|         2 |    997368 |   12983   307963  1770425 |   760723   112543     31 |        1245  -      828952 |  3.170 %  |
|         1 |    997368 |   12983   307963  1770425 |   760723   443564     36 |        1252  -     1095765 |  3.170 %  |
|         2 |   1496156 |   12983   307963  1770425 |   836795    62220     52 |        1245  -     1019026 |  3.170 %  |
|         0 |   1496156 |   12983   307963  1770425 |   836559   755849     35 |        1252  -     1038039 |  3.170 %  |
|         3 |   1496156 |   12983   307963  1770425 |   836795    87060     29 |        1252  -     1101593 |  3.170 %  |
|         1 |   1496156 |   12983   307963  1770425 |   836795   483746     36 |        1252  -     1370486 |  3.170 %  |
|         0 |   2244338 |   12983   307963  1770425 |   920215   389660     27 |        1252  -     1509084 |  3.170 %  |
|         2 |   2244338 |   12983   307963  1770425 |   920475   529030     29 |        1245  -     1533453 |  3.170 %  |
|         3 |   2244338 |   12983   307963  1770425 |   920475   506417     39 |        1252  -     1576553 |  3.170 %  |
|         1 |   2244338 |   12983   307963  1770425 |   920475    47656     22 |        1252  -     1775509 |  3.170 %  |
|         0 |   3366612 |   12983   307963  1770425 |  1012237   216402     46 |        1252  -     2007367 |  3.170 %  |
|         3 |   3366612 |   12983   307963  1770425 |  1012522   600029     41 |        1252  -     2310911 |  3.170 %  |
|         2 |   3366612 |   12983   307963  1770425 |  1012522   662167     46 |        1245  -     2278440 |  3.170 %  |
|         1 |   3366612 |   12983   307963  1770425 |  1012522   915902     35 |        1252  -     2411207 |  3.170 %  |
|         0 |   5050023 |   12983   307963  1770425 |  1113461   693224     33 |        1252  -     2756834 |  3.170 %  |
|         3 |   5050023 |   12983   307963  1770425 |  1113775   246511     43 |        1252  -     3214441 |  3.170 %  |
|         2 |   5050023 |   12983   307963  1770425 |  1113775   452322     38 |        1245  -     3243284 |  3.170 %  |
|         1 |   5050023 |   12983   307963  1770425 |  1113775   614726     28 |        1252  -     3331341 |  3.170 %  |
|         0 |   7575139 |   12983   307963  1770425 |  1224807   412727     38 |        1252  -     4169566 |  3.170 %  |
|         2 |   7575139 |   12983   307963  1770425 |  1225152   650428     43 |        1245  -     4180344 |  3.170 %  |
